172 300 74 52 87 1 88 66 39 50 72 78 55 38 2 61 70 65 83 62 68 17 57 21 37 96 83 98 54 56 94 3 80 20 6 18 20 45 83 10 95 6 39 49 96 40 61 65 56 95 26 23 11 82 96 99 30 78 49 35 86 94 89 17 65 95 34 84 91 68 45 85 26 83 85 21 23 98 37 78 92 14 53 55 96 100 53 77 29 53 11 14 47 99 30 11 45 15 47 36 83 91 20 60 26 57 80 100 54 16 29 45 29 33 99 76 32 4 4 61 56 14 26 2 13 8 65 9 22 11 44 56 53 16 15 78 72 46 77 77 13 6 21 94 38 72 21 22 27 25 82 82 38 7 36 2 14 100 11 88 62 6 95 14 73 62 92 44 7 68 20 20 25 93 